(set-logic QF_UF)
(declare-fun A0 () Bool)
(declare-fun A1 () Bool)
(declare-fun A2 () Bool)
(declare-fun A3 () Bool)
(declare-fun A4 () Bool)
(declare-fun A5 () Bool)
(declare-fun A6 () Bool)
(declare-fun A7 () Bool)
(declare-fun A8 () Bool)
(declare-fun A9 () Bool)
(declare-fun A10 () Bool)
(declare-fun A11 () Bool)
(declare-fun A12 () Bool)
(declare-fun A14 () Bool)
(declare-fun A15 () Bool)
(declare-fun A16 () Bool)
(declare-fun A17 () Bool)
(declare-fun A18 () Bool)
(declare-fun A19 () Bool)
(declare-fun A20 () Bool)
(declare-fun A21 () Bool)
(declare-fun A23 () Bool)
(declare-fun A24 () Bool)
(assert (let ((.def_0 (not A16))) (let ((.def_1 (or .def_0 A21))) (let ((.def_2 (not .def_1))) (let ((.def_3 (not A17))) (let ((.def_4 (not A19))) (let ((.def_5 (or .def_4 .def_3))) (let ((.def_6 (or .def_5 .def_2))) (let ((.def_7 (or A17 A11))) (let ((.def_8 (not .def_7))) (let ((.def_9 (not A6))) (let ((.def_10 (not A2))) (let ((.def_11 (or .def_10 .def_9))) (let ((.def_12 (not .def_11))) (let ((.def_13 (= .def_12 .def_8))) (let ((.def_14 (not .def_13))) (let ((.def_15 (or .def_14 .def_6))) (let ((.def_16 (not .def_15))) (let ((.def_17 (not A1))) (let ((.def_18 (and .def_17 .def_10))) (let ((.def_19 (and A1 .def_17))) (let ((.def_20 (and .def_19 .def_18))) (let ((.def_21 (not .def_20))) (let ((.def_22 (or A11 A0))) (let ((.def_23 (not A18))) (let ((.def_24 (or .def_23 A19))) (let ((.def_25 (or .def_24 .def_22))) (let ((.def_26 (and .def_25 .def_21))) (let ((.def_27 (not .def_26))) (let ((.def_28 (and .def_27 .def_16))) (let ((.def_29 (not .def_28))) (let ((.def_30 (and A6 A12))) (let ((.def_31 (not .def_30))) (let ((.def_32 (not A14))) (let ((.def_33 (or A9 .def_32))) (let ((.def_34 (not .def_33))) (let ((.def_35 (and .def_34 .def_31))) (let ((.def_36 (not .def_35))) (let ((.def_37 (not A21))) (let ((.def_38 (and A20 .def_37))) (let ((.def_39 (not .def_38))) (let ((.def_40 (not A20))) (let ((.def_41 (not A5))) (let ((.def_42 (or .def_41 .def_40))) (let ((.def_43 (not .def_42))) (let ((.def_44 (and .def_43 .def_39))) (let ((.def_45 (or .def_44 .def_36))) (let ((.def_46 (not A0))) (let ((.def_47 (or A2 .def_46))) (let ((.def_48 (not A10))) (let ((.def_49 (or A14 .def_48))) (let ((.def_50 (and .def_49 .def_47))) (let ((.def_51 (not .def_50))) (let ((.def_52 (and .def_40 A15))) (let ((.def_53 (not .def_52))) (let ((.def_54 (= A24 A7))) (let ((.def_55 (and .def_54 .def_53))) (let ((.def_56 (= .def_55 .def_51))) (let ((.def_57 (not .def_56))) (let ((.def_58 (and .def_57 .def_45))) (let ((.def_59 (not .def_58))) (let ((.def_60 (or .def_59 .def_29))) (let ((.def_61 (or .def_0 A4))) (let ((.def_62 (not .def_61))) (let ((.def_63 (not A15))) (let ((.def_64 (not A24))) (let ((.def_65 (or .def_64 .def_63))) (let ((.def_66 (not .def_65))) (let ((.def_67 (or .def_66 .def_62))) (let ((.def_68 (and .def_4 A20))) (let ((.def_69 (= .def_9 A3))) (let ((.def_70 (and .def_69 .def_68))) (let ((.def_71 (not .def_70))) (let ((.def_72 (and .def_71 .def_67))) (let ((.def_73 (not .def_72))) (let ((.def_74 (or .def_0 .def_63))) (let ((.def_75 (and A3 .def_41))) (let ((.def_76 (or .def_75 .def_74))) (let ((.def_77 (not .def_76))) (let ((.def_78 (and .def_46 .def_10))) (let ((.def_79 (not A8))) (let ((.def_80 (and .def_10 .def_79))) (let ((.def_81 (= .def_80 .def_78))) (let ((.def_82 (not .def_81))) (let ((.def_83 (and .def_82 .def_77))) (let ((.def_84 (or .def_83 .def_73))) (let ((.def_85 (not .def_84))) (let ((.def_86 (not A11))) (let ((.def_87 (and A23 .def_86))) (let ((.def_88 (not .def_87))) (let ((.def_89 (= .def_3 .def_63))) (let ((.def_90 (or .def_89 .def_88))) (let ((.def_91 (= A5 A2))) (let ((.def_92 (not .def_91))) (let ((.def_93 (not A9))) (let ((.def_94 (and A0 .def_93))) (let ((.def_95 (not .def_94))) (let ((.def_96 (and .def_95 .def_92))) (let ((.def_97 (not .def_96))) (let ((.def_98 (or .def_97 .def_90))) (let ((.def_99 (or A20 .def_46))) (let ((.def_100 (or A21 A23))) (let ((.def_101 (and .def_100 .def_99))) (let ((.def_102 (not .def_101))) (let ((.def_103 (= A5 A24))) (let ((.def_104 (not .def_103))) (let ((.def_105 (or .def_9 .def_64))) (let ((.def_106 (and .def_105 .def_104))) (let ((.def_107 (and .def_106 .def_102))) (let ((.def_108 (= .def_107 .def_98))) (let ((.def_109 (not .def_108))) (let ((.def_110 (and .def_109 .def_85))) (let ((.def_111 (not .def_110))) (let ((.def_112 (and .def_111 .def_60))) (let ((.def_113 (not .def_112))) .def_113)))))))))))))))))))))))))))))))))))))))))))))))))))))))))))))))))))))))))))))))))))))))))))))))))))))))))))))))))))
(check-sat)
